\* Nilai_Optimum_Keripik_Keladi_Jayapura *\
Maximize
Pendapatan_Maksimal_Produksi_Keripik_Keladi_Jayapura: 27250 Keripik_Gurih
 + 19400 Keripik_Original + 30320 Keripik_Pedas_Manis
Subject To
BahanKeladi: 600 Keripik_Gurih + 700 Keripik_Original
 + 500 Keripik_Pedas_Manis <= 200000
Cabai: 12 Keripik_Pedas_Manis <= 250
Garam: 10 Keripik_Gurih + 4 Keripik_Pedas_Manis <= 20000
Gula: 50 Keripik_Gurih + 120 Keripik_Pedas_Manis <= 5000
Minyak: 400 Keripik_Gurih + 400 Keripik_Original + 400 Keripik_Pedas_Manis
 <= 10000
Penyedap: 2 Keripik_Pedas_Manis <= 1000
Rempah_rempah: 5 Keripik_Gurih + 3 Keripik_Pedas_Manis <= 2000
End
